p cnf 16 16
-1 16 0 
-2 -3 16 0 
-4 -3 16 0 
-4 16 0 
-2 -5 -4 -3 16 0 
-2 -4 -3 -6 16 0 
-7 -8 -9 -3 16 0 
-2 -3 -4 -10 16 0 
-11 -5 -12 -3 16 0 
-3 16 0 
-13 16 0 
-3 16 0 
-14 16 0 
-7 -3 16 0 
-2 -4 -3 16 0 
-15 16 0 
